4751 2977  0
4499 2720  1
4516 2712  1
4612 2838  3
4793 3009  4
4756 2982  4
4688 2897  5
4680 2906  5
4658 2882  6
4649 2875  7
4677 2841  8
4632 2700  10
4661 2767  11
4614 2830  12
4661 2885  13
4611 2836  14
4621 2847  15
4623 2840  15
4680 2896  16
4678 2902  17
4621 2847  18
4641 2867  19
4638 2829  19
4656 2864  20
4653 2869  20
4618 2844  21
4623 2830  21
4651 2819  22
4602 2828  22
4670 2785  22
4538 2753  23
4613 2837  24
4592 2808  25
4629 2843  26
4604 2830  27
4589 2805  28
4529 2745  29
4724 2940  30
4591 2759  31
4606 2798  32
4598 2813  32
4559 2772  33
4556 2659  34
4479 2703  35
4632 2831  36
4606 2790  37
4709 2908  39
4625 2841  40
4630 2837  40
4718 2943  41
4574 2788  42
4600 2819  43
4586 2672  44
4535 2681  44
4524 2730  45
4625 2851  46
4614 2830  47
4593 2814  48
4603 2819  49
